1547, 0, 0, 51, 1
1548, 0, 1, 56, 3
1549, 0, 2, 60, 0
1550, 0, 3, 92, 2
1551, 1, 0, 79, 2
1552, 1, 1, 93, 3
1553, 1, 2, 65, 1
1554, 1, 3, 53, 0
1555, 2, 0, 43, 0
1556, 2, 1, 83, 3
1557, 2, 2, 98, 2
1558, 2, 3, 68, 1
1559, 3, 0, 41, 0
1560, 3, 1, 32, 3
1561, 3, 2, 95, 1
1562, 3, 3, 66, 2
